c nIsolatedPIs 14
c maxPI 121
p cnf 659 1615
c gate 122 65 116 0
65 -122 0
116 -122 0
-65 -116 122 0
c gate 123 67 -116 0
67 -123 0
-116 -123 0
-67 116 123 0
c gate 124 115 -123 0
115 -124 0
-123 -124 0
-115 123 124 0
c gate 125 -122 124 0
-122 -125 0
124 -125 0
122 -124 125 0
c gate 126 68 -116 0
68 -126 0
-116 -126 0
-68 116 126 0
c gate 127 66 116 0
66 -127 0
116 -127 0
-66 -116 127 0
c gate 128 -126 -127 0
-126 -128 0
-127 -128 0
126 127 128 0
c gate 129 -115 128 0
-115 -129 0
128 -129 0
115 -128 129 0
c gate 130 -118 -129 0
-118 -130 0
-129 -130 0
118 129 130 0
c gate 131 -125 130 0
-125 -131 0
130 -131 0
125 -130 131 0
c gate 132 57 116 0
57 -132 0
116 -132 0
-57 -116 132 0
c gate 133 59 -116 0
59 -133 0
-116 -133 0
-59 116 133 0
c gate 134 115 -133 0
115 -134 0
-133 -134 0
-115 133 134 0
c gate 135 -132 134 0
-132 -135 0
134 -135 0
132 -134 135 0
c gate 136 60 -116 0
60 -136 0
-116 -136 0
-60 116 136 0
c gate 137 58 116 0
58 -137 0
116 -137 0
-58 -116 137 0
c gate 138 -136 -137 0
-136 -138 0
-137 -138 0
136 137 138 0
c gate 139 -115 138 0
-115 -139 0
138 -139 0
115 -138 139 0
c gate 140 118 -139 0
118 -140 0
-139 -140 0
-118 139 140 0
c gate 141 -135 140 0
-135 -141 0
140 -141 0
135 -140 141 0
c gate 142 117 -141 0
117 -142 0
-141 -142 0
-117 141 142 0
c gate 143 -131 142 0
-131 -143 0
142 -143 0
131 -142 143 0
c gate 144 61 116 0
61 -144 0
116 -144 0
-61 -116 144 0
c gate 145 63 -116 0
63 -145 0
-116 -145 0
-63 116 145 0
c gate 146 115 -145 0
115 -146 0
-145 -146 0
-115 145 146 0
c gate 147 -144 146 0
-144 -147 0
146 -147 0
144 -146 147 0
c gate 148 64 -116 0
64 -148 0
-116 -148 0
-64 116 148 0
c gate 149 62 116 0
62 -149 0
116 -149 0
-62 -116 149 0
c gate 150 -148 -149 0
-148 -150 0
-149 -150 0
148 149 150 0
c gate 151 -115 150 0
-115 -151 0
150 -151 0
115 -150 151 0
c gate 152 118 -151 0
118 -152 0
-151 -152 0
-118 151 152 0
c gate 153 -147 152 0
-147 -153 0
152 -153 0
147 -152 153 0
c gate 154 70 116 0
70 -154 0
116 -154 0
-70 -116 154 0
c gate 155 72 -116 0
72 -155 0
-116 -155 0
-72 116 155 0
c gate 156 -115 -155 0
-115 -156 0
-155 -156 0
115 155 156 0
c gate 157 -154 156 0
-154 -157 0
156 -157 0
154 -156 157 0
c gate 158 69 116 0
69 -158 0
116 -158 0
-69 -116 158 0
c gate 159 71 -116 0
71 -159 0
-116 -159 0
-71 116 159 0
c gate 160 115 -159 0
115 -160 0
-159 -160 0
-115 159 160 0
c gate 161 -158 160 0
-158 -161 0
160 -161 0
158 -160 161 0
c gate 162 -118 -161 0
-118 -162 0
-161 -162 0
118 161 162 0
c gate 163 -157 162 0
-157 -163 0
162 -163 0
157 -162 163 0
c gate 164 -117 -163 0
-117 -164 0
-163 -164 0
117 163 164 0
c gate 165 -153 164 0
-153 -165 0
164 -165 0
153 -164 165 0
c gate 166 -143 -165 0
-143 -166 0
-165 -166 0
143 165 166 0
c gate 167 -120 -166 0
-120 -167 0
-166 -167 0
120 166 167 0
c gate 168 39 -116 0
39 -168 0
-116 -168 0
-39 116 168 0
c gate 169 37 116 0
37 -169 0
116 -169 0
-37 -116 169 0
c gate 170 115 -169 0
115 -170 0
-169 -170 0
-115 169 170 0
c gate 171 -168 170 0
-168 -171 0
170 -171 0
168 -170 171 0
c gate 172 40 -116 0
40 -172 0
-116 -172 0
-40 116 172 0
c gate 173 38 116 0
38 -173 0
116 -173 0
-38 -116 173 0
c gate 174 -115 -173 0
-115 -174 0
-173 -174 0
115 173 174 0
c gate 175 -172 174 0
-172 -175 0
174 -175 0
172 -174 175 0
c gate 176 -118 -175 0
-118 -176 0
-175 -176 0
118 175 176 0
c gate 177 -171 176 0
-171 -177 0
176 -177 0
171 -176 177 0
c gate 178 32 -116 0
32 -178 0
-116 -178 0
-32 116 178 0
c gate 179 30 116 0
30 -179 0
116 -179 0
-30 -116 179 0
c gate 180 -115 -179 0
-115 -180 0
-179 -180 0
115 179 180 0
c gate 181 -178 180 0
-178 -181 0
180 -181 0
178 -180 181 0
c gate 182 31 -116 0
31 -182 0
-116 -182 0
-31 116 182 0
c gate 183 29 116 0
29 -183 0
116 -183 0
-29 -116 183 0
c gate 184 115 -183 0
115 -184 0
-183 -184 0
-115 183 184 0
c gate 185 -182 184 0
-182 -185 0
184 -185 0
182 -184 185 0
c gate 186 118 -185 0
118 -186 0
-185 -186 0
-118 185 186 0
c gate 187 -181 186 0
-181 -187 0
186 -187 0
181 -186 187 0
c gate 188 -117 -187 0
-117 -188 0
-187 -188 0
117 187 188 0
c gate 189 -177 188 0
-177 -189 0
188 -189 0
177 -188 189 0
c gate 190 33 116 0
33 -190 0
116 -190 0
-33 -116 190 0
c gate 191 35 -116 0
35 -191 0
-116 -191 0
-35 116 191 0
c gate 192 115 -191 0
115 -192 0
-191 -192 0
-115 191 192 0
c gate 193 -190 192 0
-190 -193 0
192 -193 0
190 -192 193 0
c gate 194 36 -116 0
36 -194 0
-116 -194 0
-36 116 194 0
c gate 195 34 116 0
34 -195 0
116 -195 0
-34 -116 195 0
c gate 196 -115 -195 0
-115 -196 0
-195 -196 0
115 195 196 0
c gate 197 -194 196 0
-194 -197 0
196 -197 0
194 -196 197 0
c gate 198 -118 -197 0
-118 -198 0
-197 -198 0
118 197 198 0
c gate 199 -193 198 0
-193 -199 0
198 -199 0
193 -198 199 0
c gate 200 28 -116 0
28 -200 0
-116 -200 0
-28 116 200 0
c gate 201 26 116 0
26 -201 0
116 -201 0
-26 -116 201 0
c gate 202 -115 -201 0
-115 -202 0
-201 -202 0
115 201 202 0
c gate 203 -200 202 0
-200 -203 0
202 -203 0
200 -202 203 0
c gate 204 25 116 0
25 -204 0
116 -204 0
-25 -116 204 0
c gate 205 27 -116 0
27 -205 0
-116 -205 0
-27 116 205 0
c gate 206 115 -205 0
115 -206 0
-205 -206 0
-115 205 206 0
c gate 207 -204 206 0
-204 -207 0
206 -207 0
204 -206 207 0
c gate 208 118 -207 0
118 -208 0
-207 -208 0
-118 207 208 0
c gate 209 -203 208 0
-203 -209 0
208 -209 0
203 -208 209 0
c gate 210 117 -209 0
117 -210 0
-209 -210 0
-117 209 210 0
c gate 211 -199 210 0
-199 -211 0
210 -211 0
199 -210 211 0
c gate 212 -189 -211 0
-189 -212 0
-211 -212 0
189 211 212 0
c gate 213 120 -212 0
120 -213 0
-212 -213 0
-120 212 213 0
c gate 214 -119 -213 0
-119 -214 0
-213 -214 0
119 213 214 0
c gate 215 -167 214 0
-167 -215 0
214 -215 0
167 -214 215 0
c gate 216 121 -215 0
121 -216 0
-215 -216 0
-121 215 216 0
c gate 217 23 -116 0
23 -217 0
-116 -217 0
-23 116 217 0
c gate 218 21 116 0
21 -218 0
116 -218 0
-21 -116 218 0
c gate 219 115 -218 0
115 -219 0
-218 -219 0
-115 218 219 0
c gate 220 -217 219 0
-217 -220 0
219 -220 0
217 -219 220 0
c gate 221 24 -116 0
24 -221 0
-116 -221 0
-24 116 221 0
c gate 222 22 116 0
22 -222 0
116 -222 0
-22 -116 222 0
c gate 223 -115 -222 0
-115 -223 0
-222 -223 0
115 222 223 0
c gate 224 -221 223 0
-221 -224 0
223 -224 0
221 -223 224 0
c gate 225 -118 -224 0
-118 -225 0
-224 -225 0
118 224 225 0
c gate 226 -220 225 0
-220 -226 0
225 -226 0
220 -225 226 0
c gate 227 16 -116 0
16 -227 0
-116 -227 0
-16 116 227 0
c gate 228 14 116 0
14 -228 0
116 -228 0
-14 -116 228 0
c gate 229 -115 -228 0
-115 -229 0
-228 -229 0
115 228 229 0
c gate 230 -227 229 0
-227 -230 0
229 -230 0
227 -229 230 0
c gate 231 15 -116 0
15 -231 0
-116 -231 0
-15 116 231 0
c gate 232 13 116 0
13 -232 0
116 -232 0
-13 -116 232 0
c gate 233 115 -232 0
115 -233 0
-232 -233 0
-115 232 233 0
c gate 234 -231 233 0
-231 -234 0
233 -234 0
231 -233 234 0
c gate 235 118 -234 0
118 -235 0
-234 -235 0
-118 234 235 0
c gate 236 -230 235 0
-230 -236 0
235 -236 0
230 -235 236 0
c gate 237 -117 -236 0
-117 -237 0
-236 -237 0
117 236 237 0
c gate 238 -226 237 0
-226 -238 0
237 -238 0
226 -237 238 0
c gate 239 19 -116 0
19 -239 0
-116 -239 0
-19 116 239 0
c gate 240 17 116 0
17 -240 0
116 -240 0
-17 -116 240 0
c gate 241 115 -240 0
115 -241 0
-240 -241 0
-115 240 241 0
c gate 242 -239 241 0
-239 -242 0
241 -242 0
239 -241 242 0
c gate 243 20 -116 0
20 -243 0
-116 -243 0
-20 116 243 0
c gate 244 18 116 0
18 -244 0
116 -244 0
-18 -116 244 0
c gate 245 -115 -244 0
-115 -245 0
-244 -245 0
115 244 245 0
c gate 246 -243 245 0
-243 -246 0
245 -246 0
243 -245 246 0
c gate 247 -118 -246 0
-118 -247 0
-246 -247 0
118 246 247 0
c gate 248 -242 247 0
-242 -248 0
247 -248 0
242 -247 248 0
c gate 249 12 -116 0
12 -249 0
-116 -249 0
-12 116 249 0
c gate 250 10 116 0
10 -250 0
116 -250 0
-10 -116 250 0
c gate 251 -115 -250 0
-115 -251 0
-250 -251 0
115 250 251 0
c gate 252 -249 251 0
-249 -252 0
251 -252 0
249 -251 252 0
c gate 253 11 -116 0
11 -253 0
-116 -253 0
-11 116 253 0
c gate 254 9 116 0
9 -254 0
116 -254 0
-9 -116 254 0
c gate 255 115 -254 0
115 -255 0
-254 -255 0
-115 254 255 0
c gate 256 -253 255 0
-253 -256 0
255 -256 0
253 -255 256 0
c gate 257 118 -256 0
118 -257 0
-256 -257 0
-118 256 257 0
c gate 258 -252 257 0
-252 -258 0
257 -258 0
252 -257 258 0
c gate 259 117 -258 0
117 -259 0
-258 -259 0
-117 258 259 0
c gate 260 -248 259 0
-248 -260 0
259 -260 0
248 -259 260 0
c gate 261 -238 -260 0
-238 -261 0
-260 -261 0
238 260 261 0
c gate 262 120 -261 0
120 -262 0
-261 -262 0
-120 261 262 0
c gate 263 51 -116 0
51 -263 0
-116 -263 0
-51 116 263 0
c gate 264 49 116 0
49 -264 0
116 -264 0
-49 -116 264 0
c gate 265 115 -264 0
115 -265 0
-264 -265 0
-115 264 265 0
c gate 266 -263 265 0
-263 -266 0
265 -266 0
263 -265 266 0
c gate 267 52 -116 0
52 -267 0
-116 -267 0
-52 116 267 0
c gate 268 50 116 0
50 -268 0
116 -268 0
-50 -116 268 0
c gate 269 -115 -268 0
-115 -269 0
-268 -269 0
115 268 269 0
c gate 270 -267 269 0
-267 -270 0
269 -270 0
267 -269 270 0
c gate 271 -118 -270 0
-118 -271 0
-270 -271 0
118 270 271 0
c gate 272 -266 271 0
-266 -272 0
271 -272 0
266 -271 272 0
c gate 273 44 -116 0
44 -273 0
-116 -273 0
-44 116 273 0
c gate 274 42 116 0
42 -274 0
116 -274 0
-42 -116 274 0
c gate 275 -115 -274 0
-115 -275 0
-274 -275 0
115 274 275 0
c gate 276 -273 275 0
-273 -276 0
275 -276 0
273 -275 276 0
c gate 277 43 -116 0
43 -277 0
-116 -277 0
-43 116 277 0
c gate 278 41 116 0
41 -278 0
116 -278 0
-41 -116 278 0
c gate 279 115 -278 0
115 -279 0
-278 -279 0
-115 278 279 0
c gate 280 -277 279 0
-277 -280 0
279 -280 0
277 -279 280 0
c gate 281 118 -280 0
118 -281 0
-280 -281 0
-118 280 281 0
c gate 282 -276 281 0
-276 -282 0
281 -282 0
276 -281 282 0
c gate 283 117 -282 0
117 -283 0
-282 -283 0
-117 282 283 0
c gate 284 -272 283 0
-272 -284 0
283 -284 0
272 -283 284 0
c gate 285 55 -116 0
55 -285 0
-116 -285 0
-55 116 285 0
c gate 286 53 116 0
53 -286 0
116 -286 0
-53 -116 286 0
c gate 287 115 -286 0
115 -287 0
-286 -287 0
-115 286 287 0
c gate 288 -285 287 0
-285 -288 0
287 -288 0
285 -287 288 0
c gate 289 56 -116 0
56 -289 0
-116 -289 0
-56 116 289 0
c gate 290 54 116 0
54 -290 0
116 -290 0
-54 -116 290 0
c gate 291 -289 -290 0
-289 -291 0
-290 -291 0
289 290 291 0
c gate 292 -115 291 0
-115 -292 0
291 -292 0
115 -291 292 0
c gate 293 -118 -292 0
-118 -293 0
-292 -293 0
118 292 293 0
c gate 294 -288 293 0
-288 -294 0
293 -294 0
288 -293 294 0
c gate 295 48 -116 0
48 -295 0
-116 -295 0
-48 116 295 0
c gate 296 46 116 0
46 -296 0
116 -296 0
-46 -116 296 0
c gate 297 -115 -296 0
-115 -297 0
-296 -297 0
115 296 297 0
c gate 298 -295 297 0
-295 -298 0
297 -298 0
295 -297 298 0
c gate 299 45 116 0
45 -299 0
116 -299 0
-45 -116 299 0
c gate 300 47 -116 0
47 -300 0
-116 -300 0
-47 116 300 0
c gate 301 115 -300 0
115 -301 0
-300 -301 0
-115 300 301 0
c gate 302 -299 301 0
-299 -302 0
301 -302 0
299 -301 302 0
c gate 303 118 -302 0
118 -303 0
-302 -303 0
-118 302 303 0
c gate 304 -298 303 0
-298 -304 0
303 -304 0
298 -303 304 0
c gate 305 -117 -304 0
-117 -305 0
-304 -305 0
117 304 305 0
c gate 306 -294 305 0
-294 -306 0
305 -306 0
294 -305 306 0
c gate 307 -284 -306 0
-284 -307 0
-306 -307 0
284 306 307 0
c gate 308 -120 -307 0
-120 -308 0
-307 -308 0
120 307 308 0
c gate 309 119 -308 0
119 -309 0
-308 -309 0
-119 308 309 0
c gate 310 -262 309 0
-262 -310 0
309 -310 0
262 -309 310 0
c gate 311 216 310 0
216 -311 0
310 -311 0
-216 -310 311 0
c gate 312 35 116 0
35 -312 0
116 -312 0
-35 -116 312 0
c gate 313 37 -116 0
37 -313 0
-116 -313 0
-37 116 313 0
c gate 314 115 -313 0
115 -314 0
-313 -314 0
-115 313 314 0
c gate 315 -312 314 0
-312 -315 0
314 -315 0
312 -314 315 0
c gate 316 38 -116 0
38 -316 0
-116 -316 0
-38 116 316 0
c gate 317 36 116 0
36 -317 0
116 -317 0
-36 -116 317 0
c gate 318 -115 -317 0
-115 -318 0
-317 -318 0
115 317 318 0
c gate 319 -316 318 0
-316 -319 0
318 -319 0
316 -318 319 0
c gate 320 -118 -319 0
-118 -320 0
-319 -320 0
118 319 320 0
c gate 321 -315 320 0
-315 -321 0
320 -321 0
315 -320 321 0
c gate 322 28 116 0
28 -322 0
116 -322 0
-28 -116 322 0
c gate 323 30 -116 0
30 -323 0
-116 -323 0
-30 116 323 0
c gate 324 -115 -323 0
-115 -324 0
-323 -324 0
115 323 324 0
c gate 325 -322 324 0
-322 -325 0
324 -325 0
322 -324 325 0
c gate 326 29 -116 0
29 -326 0
-116 -326 0
-29 116 326 0
c gate 327 27 116 0
27 -327 0
116 -327 0
-27 -116 327 0
c gate 328 115 -327 0
115 -328 0
-327 -328 0
-115 327 328 0
c gate 329 -326 328 0
-326 -329 0
328 -329 0
326 -328 329 0
c gate 330 118 -329 0
118 -330 0
-329 -330 0
-118 329 330 0
c gate 331 -325 330 0
-325 -331 0
330 -331 0
325 -330 331 0
c gate 332 -117 -331 0
-117 -332 0
-331 -332 0
117 331 332 0
c gate 333 -321 332 0
-321 -333 0
332 -333 0
321 -332 333 0
c gate 334 31 116 0
31 -334 0
116 -334 0
-31 -116 334 0
c gate 335 33 -116 0
33 -335 0
-116 -335 0
-33 116 335 0
c gate 336 115 -335 0
115 -336 0
-335 -336 0
-115 335 336 0
c gate 337 -334 336 0
-334 -337 0
336 -337 0
334 -336 337 0
c gate 338 34 -116 0
34 -338 0
-116 -338 0
-34 116 338 0
c gate 339 32 116 0
32 -339 0
116 -339 0
-32 -116 339 0
c gate 340 -115 -339 0
-115 -340 0
-339 -340 0
115 339 340 0
c gate 341 -338 340 0
-338 -341 0
340 -341 0
338 -340 341 0
c gate 342 -118 -341 0
-118 -342 0
-341 -342 0
118 341 342 0
c gate 343 -337 342 0
-337 -343 0
342 -343 0
337 -342 343 0
c gate 344 24 116 0
24 -344 0
116 -344 0
-24 -116 344 0
c gate 345 26 -116 0
26 -345 0
-116 -345 0
-26 116 345 0
c gate 346 -115 -345 0
-115 -346 0
-345 -346 0
115 345 346 0
c gate 347 -344 346 0
-344 -347 0
346 -347 0
344 -346 347 0
c gate 348 25 -116 0
25 -348 0
-116 -348 0
-25 116 348 0
c gate 349 23 116 0
23 -349 0
116 -349 0
-23 -116 349 0
c gate 350 115 -349 0
115 -350 0
-349 -350 0
-115 349 350 0
c gate 351 -348 350 0
-348 -351 0
350 -351 0
348 -350 351 0
c gate 352 118 -351 0
118 -352 0
-351 -352 0
-118 351 352 0
c gate 353 -347 352 0
-347 -353 0
352 -353 0
347 -352 353 0
c gate 354 117 -353 0
117 -354 0
-353 -354 0
-117 353 354 0
c gate 355 -343 354 0
-343 -355 0
354 -355 0
343 -354 355 0
c gate 356 -333 -355 0
-333 -356 0
-355 -356 0
333 355 356 0
c gate 357 120 -356 0
120 -357 0
-356 -357 0
-120 356 357 0
c gate 358 55 116 0
55 -358 0
116 -358 0
-55 -116 358 0
c gate 359 57 -116 0
57 -359 0
-116 -359 0
-57 116 359 0
c gate 360 -358 -359 0
-358 -360 0
-359 -360 0
358 359 360 0
c gate 361 115 360 0
115 -361 0
360 -361 0
-115 -360 361 0
c gate 362 58 -116 0
58 -362 0
-116 -362 0
-58 116 362 0
c gate 363 56 116 0
56 -363 0
116 -363 0
-56 -116 363 0
c gate 364 -115 -363 0
-115 -364 0
-363 -364 0
115 363 364 0
c gate 365 -362 364 0
-362 -365 0
364 -365 0
362 -364 365 0
c gate 366 118 -365 0
118 -366 0
-365 -366 0
-118 365 366 0
c gate 367 -361 366 0
-361 -367 0
366 -367 0
361 -366 367 0
c gate 368 63 116 0
63 -368 0
116 -368 0
-63 -116 368 0
c gate 369 65 -116 0
65 -369 0
-116 -369 0
-65 116 369 0
c gate 370 -368 -369 0
-368 -370 0
-369 -370 0
368 369 370 0
c gate 371 115 370 0
115 -371 0
370 -371 0
-115 -370 371 0
c gate 372 66 -116 0
66 -372 0
-116 -372 0
-66 116 372 0
c gate 373 64 116 0
64 -373 0
116 -373 0
-64 -116 373 0
c gate 374 -115 -373 0
-115 -374 0
-373 -374 0
115 373 374 0
c gate 375 -372 374 0
-372 -375 0
374 -375 0
372 -374 375 0
c gate 376 -118 -375 0
-118 -376 0
-375 -376 0
118 375 376 0
c gate 377 -371 376 0
-371 -377 0
376 -377 0
371 -376 377 0
c gate 378 -367 -377 0
-367 -378 0
-377 -378 0
367 377 378 0
c gate 379 117 -378 0
117 -379 0
-378 -379 0
-117 378 379 0
c gate 380 67 116 0
67 -380 0
116 -380 0
-67 -116 380 0
c gate 381 69 -116 0
69 -381 0
-116 -381 0
-69 116 381 0
c gate 382 -380 -381 0
-380 -382 0
-381 -382 0
380 381 382 0
c gate 383 115 382 0
115 -383 0
382 -383 0
-115 -382 383 0
c gate 384 70 -116 0
70 -384 0
-116 -384 0
-70 116 384 0
c gate 385 68 116 0
68 -385 0
116 -385 0
-68 -116 385 0
c gate 386 -115 -385 0
-115 -386 0
-385 -386 0
115 385 386 0
c gate 387 -384 386 0
-384 -387 0
386 -387 0
384 -386 387 0
c gate 388 -118 -387 0
-118 -388 0
-387 -388 0
118 387 388 0
c gate 389 -383 388 0
-383 -389 0
388 -389 0
383 -388 389 0
c gate 390 59 116 0
59 -390 0
116 -390 0
-59 -116 390 0
c gate 391 61 -116 0
61 -391 0
-116 -391 0
-61 116 391 0
c gate 392 -390 -391 0
-390 -392 0
-391 -392 0
390 391 392 0
c gate 393 115 392 0
115 -393 0
392 -393 0
-115 -392 393 0
c gate 394 62 -116 0
62 -394 0
-116 -394 0
-62 116 394 0
c gate 395 60 116 0
60 -395 0
116 -395 0
-60 -116 395 0
c gate 396 -115 -395 0
-115 -396 0
-395 -396 0
115 395 396 0
c gate 397 -394 396 0
-394 -397 0
396 -397 0
394 -396 397 0
c gate 398 118 -397 0
118 -398 0
-397 -398 0
-118 397 398 0
c gate 399 -393 398 0
-393 -399 0
398 -399 0
393 -398 399 0
c gate 400 -389 -399 0
-389 -400 0
-399 -400 0
389 399 400 0
c gate 401 -117 -400 0
-117 -401 0
-400 -401 0
117 400 401 0
c gate 402 -120 -401 0
-120 -402 0
-401 -402 0
120 401 402 0
c gate 403 -379 402 0
-379 -403 0
402 -403 0
379 -402 403 0
c gate 404 119 -403 0
119 -404 0
-403 -404 0
-119 403 404 0
c gate 405 -357 404 0
-357 -405 0
404 -405 0
357 -404 405 0
c gate 406 121 405 0
121 -406 0
405 -406 0
-121 -405 406 0
c gate 407 -311 -406 0
-311 -407 0
-406 -407 0
311 406 407 0
c gate 408 88 -116 0
88 -408 0
-116 -408 0
-88 116 408 0
c gate 409 86 116 0
86 -409 0
116 -409 0
-86 -116 409 0
c gate 410 -408 -409 0
-408 -410 0
-409 -410 0
408 409 410 0
c gate 411 115 410 0
115 -411 0
410 -411 0
-115 -410 411 0
c gate 412 87 116 0
87 -412 0
116 -412 0
-87 -116 412 0
c gate 413 89 -116 0
89 -413 0
-116 -413 0
-89 116 413 0
c gate 414 -115 -413 0
-115 -414 0
-413 -414 0
115 413 414 0
c gate 415 -412 414 0
-412 -415 0
414 -415 0
412 -414 415 0
c gate 416 118 -415 0
118 -416 0
-415 -416 0
-118 415 416 0
c gate 417 -411 416 0
-411 -417 0
416 -417 0
411 -416 417 0
c gate 418 95 116 0
95 -418 0
116 -418 0
-95 -116 418 0
c gate 419 97 -116 0
97 -419 0
-116 -419 0
-97 116 419 0
c gate 420 -115 -419 0
-115 -420 0
-419 -420 0
115 419 420 0
c gate 421 -418 420 0
-418 -421 0
420 -421 0
418 -420 421 0
c gate 422 94 116 0
94 -422 0
116 -422 0
-94 -116 422 0
c gate 423 96 -116 0
96 -423 0
-116 -423 0
-96 116 423 0
c gate 424 115 -423 0
115 -424 0
-423 -424 0
-115 423 424 0
c gate 425 -422 424 0
-422 -425 0
424 -425 0
422 -424 425 0
c gate 426 -118 -425 0
-118 -426 0
-425 -426 0
118 425 426 0
c gate 427 -421 426 0
-421 -427 0
426 -427 0
421 -426 427 0
c gate 428 117 -427 0
117 -428 0
-427 -428 0
-117 427 428 0
c gate 429 -417 428 0
-417 -429 0
428 -429 0
417 -428 429 0
c gate 430 92 -116 0
92 -430 0
-116 -430 0
-92 116 430 0
c gate 431 90 116 0
90 -431 0
116 -431 0
-90 -116 431 0
c gate 432 -430 -431 0
-430 -432 0
-431 -432 0
430 431 432 0
c gate 433 115 432 0
115 -433 0
432 -433 0
-115 -432 433 0
c gate 434 91 116 0
91 -434 0
116 -434 0
-91 -116 434 0
c gate 435 93 -116 0
93 -435 0
-116 -435 0
-93 116 435 0
c gate 436 -115 -435 0
-115 -436 0
-435 -436 0
115 435 436 0
c gate 437 -434 436 0
-434 -437 0
436 -437 0
434 -436 437 0
c gate 438 118 -437 0
118 -438 0
-437 -438 0
-118 437 438 0
c gate 439 -433 438 0
-433 -439 0
438 -439 0
433 -438 439 0
c gate 440 99 116 0
99 -440 0
116 -440 0
-99 -116 440 0
c gate 441 101 -116 0
101 -441 0
-116 -441 0
-101 116 441 0
c gate 442 -115 -441 0
-115 -442 0
-441 -442 0
115 441 442 0
c gate 443 -440 442 0
-440 -443 0
442 -443 0
440 -442 443 0
c gate 444 98 116 0
98 -444 0
116 -444 0
-98 -116 444 0
c gate 445 100 -116 0
100 -445 0
-116 -445 0
-100 116 445 0
c gate 446 115 -445 0
115 -446 0
-445 -446 0
-115 445 446 0
c gate 447 -444 446 0
-444 -447 0
446 -447 0
444 -446 447 0
c gate 448 -118 -447 0
-118 -448 0
-447 -448 0
118 447 448 0
c gate 449 -443 448 0
-443 -449 0
448 -449 0
443 -448 449 0
c gate 450 -117 -449 0
-117 -450 0
-449 -450 0
117 449 450 0
c gate 451 -439 450 0
-439 -451 0
450 -451 0
439 -450 451 0
c gate 452 -429 -451 0
-429 -452 0
-451 -452 0
429 451 452 0
c gate 453 -120 -452 0
-120 -453 0
-452 -453 0
120 452 453 0
c gate 454 115 150 0
115 -454 0
150 -454 0
-115 -150 454 0
c gate 455 -115 370 0
-115 -455 0
370 -455 0
115 -370 455 0
c gate 456 -118 -455 0
-118 -456 0
-455 -456 0
118 455 456 0
c gate 457 -454 456 0
-454 -457 0
456 -457 0
454 -456 457 0
c gate 458 115 291 0
115 -458 0
291 -458 0
-115 -291 458 0
c gate 459 -115 360 0
-115 -459 0
360 -459 0
115 -360 459 0
c gate 460 118 -459 0
118 -460 0
-459 -460 0
-118 459 460 0
c gate 461 -458 460 0
-458 -461 0
460 -461 0
458 -460 461 0
c gate 462 -457 -461 0
-457 -462 0
-461 -462 0
457 461 462 0
c gate 463 117 -462 0
117 -463 0
-462 -463 0
-117 462 463 0
c gate 464 115 138 0
115 -464 0
138 -464 0
-115 -138 464 0
c gate 465 -115 392 0
-115 -465 0
392 -465 0
115 -392 465 0
c gate 466 118 -465 0
118 -466 0
-465 -466 0
-118 465 466 0
c gate 467 -464 466 0
-464 -467 0
466 -467 0
464 -466 467 0
c gate 468 115 128 0
115 -468 0
128 -468 0
-115 -128 468 0
c gate 469 -115 382 0
-115 -469 0
382 -469 0
115 -382 469 0
c gate 470 -118 -469 0
-118 -470 0
-469 -470 0
118 469 470 0
c gate 471 -468 470 0
-468 -471 0
470 -471 0
468 -470 471 0
c gate 472 -467 -471 0
-467 -472 0
-471 -472 0
467 471 472 0
c gate 473 -117 -472 0
-117 -473 0
-472 -473 0
117 472 473 0
c gate 474 120 -473 0
120 -474 0
-473 -474 0
-120 473 474 0
c gate 475 -463 474 0
-463 -475 0
474 -475 0
463 -474 475 0
c gate 476 -453 -475 0
-453 -476 0
-475 -476 0
453 475 476 0
c gate 477 119 -476 0
119 -477 0
-476 -477 0
-119 476 477 0
c gate 478 121 477 0
121 -478 0
477 -478 0
-121 -477 478 0
c gate 479 -407 -478 0
-407 -479 0
-478 -479 0
407 478 479 0
c gate 480 82 -116 0
82 -480 0
-116 -480 0
-82 116 480 0
c gate 481 80 116 0
80 -481 0
116 -481 0
-80 -116 481 0
c gate 482 115 -481 0
115 -482 0
-481 -482 0
-115 481 482 0
c gate 483 -480 482 0
-480 -483 0
482 -483 0
480 -482 483 0
c gate 484 81 116 0
81 -484 0
116 -484 0
-81 -116 484 0
c gate 485 83 -116 0
83 -485 0
-116 -485 0
-83 116 485 0
c gate 486 -484 -485 0
-484 -486 0
-485 -486 0
484 485 486 0
c gate 487 -115 486 0
-115 -487 0
486 -487 0
115 -486 487 0
c gate 488 -118 -487 0
-118 -488 0
-487 -488 0
118 487 488 0
c gate 489 -483 488 0
-483 -489 0
488 -489 0
483 -488 489 0
c gate 490 73 116 0
73 -490 0
116 -490 0
-73 -116 490 0
c gate 491 75 -116 0
75 -491 0
-116 -491 0
-75 116 491 0
c gate 492 -115 -491 0
-115 -492 0
-491 -492 0
115 491 492 0
c gate 493 -490 492 0
-490 -493 0
492 -493 0
490 -492 493 0
c gate 494 72 116 0
72 -494 0
116 -494 0
-72 -116 494 0
c gate 495 74 -116 0
74 -495 0
-116 -495 0
-74 116 495 0
c gate 496 115 -495 0
115 -496 0
-495 -496 0
-115 495 496 0
c gate 497 -494 496 0
-494 -497 0
496 -497 0
494 -496 497 0
c gate 498 118 -497 0
118 -498 0
-497 -498 0
-118 497 498 0
c gate 499 -493 498 0
-493 -499 0
498 -499 0
493 -498 499 0
c gate 500 117 -499 0
117 -500 0
-499 -500 0
-117 499 500 0
c gate 501 -489 500 0
-489 -501 0
500 -501 0
489 -500 501 0
c gate 502 78 -116 0
78 -502 0
-116 -502 0
-78 116 502 0
c gate 503 76 116 0
76 -503 0
116 -503 0
-76 -116 503 0
c gate 504 115 -503 0
115 -504 0
-503 -504 0
-115 503 504 0
c gate 505 -502 504 0
-502 -505 0
504 -505 0
502 -504 505 0
c gate 506 77 116 0
77 -506 0
116 -506 0
-77 -116 506 0
c gate 507 79 -116 0
79 -507 0
-116 -507 0
-79 116 507 0
c gate 508 -506 -507 0
-506 -508 0
-507 -508 0
506 507 508 0
c gate 509 -115 508 0
-115 -509 0
508 -509 0
115 -508 509 0
c gate 510 118 -509 0
118 -510 0
-509 -510 0
-118 509 510 0
c gate 511 -505 510 0
-505 -511 0
510 -511 0
505 -510 511 0
c gate 512 86 -116 0
86 -512 0
-116 -512 0
-86 116 512 0
c gate 513 84 116 0
84 -513 0
116 -513 0
-84 -116 513 0
c gate 514 115 -513 0
115 -514 0
-513 -514 0
-115 513 514 0
c gate 515 -512 514 0
-512 -515 0
514 -515 0
512 -514 515 0
c gate 516 85 116 0
85 -516 0
116 -516 0
-85 -116 516 0
c gate 517 87 -116 0
87 -517 0
-116 -517 0
-87 116 517 0
c gate 518 -516 -517 0
-516 -518 0
-517 -518 0
516 517 518 0
c gate 519 -115 518 0
-115 -519 0
518 -519 0
115 -518 519 0
c gate 520 -118 -519 0
-118 -520 0
-519 -520 0
118 519 520 0
c gate 521 -515 520 0
-515 -521 0
520 -521 0
515 -520 521 0
c gate 522 -117 -521 0
-117 -522 0
-521 -522 0
117 521 522 0
c gate 523 -511 522 0
-511 -523 0
522 -523 0
511 -522 523 0
c gate 524 120 -523 0
120 -524 0
-523 -524 0
-120 523 524 0
c gate 525 -501 524 0
-501 -525 0
524 -525 0
501 -524 525 0
c gate 526 112 -116 0
112 -526 0
-116 -526 0
-112 116 526 0
c gate 527 110 116 0
110 -527 0
116 -527 0
-110 -116 527 0
c gate 528 115 -527 0
115 -528 0
-527 -528 0
-115 527 528 0
c gate 529 -526 528 0
-526 -529 0
528 -529 0
526 -528 529 0
c gate 530 111 116 0
111 -530 0
116 -530 0
-111 -116 530 0
c gate 531 113 -116 0
113 -531 0
-116 -531 0
-113 116 531 0
c gate 532 -530 -531 0
-530 -532 0
-531 -532 0
530 531 532 0
c gate 533 -115 532 0
-115 -533 0
532 -533 0
115 -532 533 0
c gate 534 -118 -533 0
-118 -534 0
-533 -534 0
118 533 534 0
c gate 535 -529 534 0
-529 -535 0
534 -535 0
529 -534 535 0
c gate 536 103 116 0
103 -536 0
116 -536 0
-103 -116 536 0
c gate 537 105 -116 0
105 -537 0
-116 -537 0
-105 116 537 0
c gate 538 -115 -537 0
-115 -538 0
-537 -538 0
115 537 538 0
c gate 539 -536 538 0
-536 -539 0
538 -539 0
536 -538 539 0
c gate 540 102 116 0
102 -540 0
116 -540 0
-102 -116 540 0
c gate 541 104 -116 0
104 -541 0
-116 -541 0
-104 116 541 0
c gate 542 115 -541 0
115 -542 0
-541 -542 0
-115 541 542 0
c gate 543 -540 542 0
-540 -543 0
542 -543 0
540 -542 543 0
c gate 544 118 -543 0
118 -544 0
-543 -544 0
-118 543 544 0
c gate 545 -539 544 0
-539 -545 0
544 -545 0
539 -544 545 0
c gate 546 117 -545 0
117 -546 0
-545 -546 0
-117 545 546 0
c gate 547 -535 546 0
-535 -547 0
546 -547 0
535 -546 547 0
c gate 548 108 -116 0
108 -548 0
-116 -548 0
-108 116 548 0
c gate 549 106 116 0
106 -549 0
116 -549 0
-106 -116 549 0
c gate 550 115 -549 0
115 -550 0
-549 -550 0
-115 549 550 0
c gate 551 -548 550 0
-548 -551 0
550 -551 0
548 -550 551 0
c gate 552 107 116 0
107 -552 0
116 -552 0
-107 -116 552 0
c gate 553 109 -116 0
109 -553 0
-116 -553 0
-109 116 553 0
c gate 554 -552 -553 0
-552 -554 0
-553 -554 0
552 553 554 0
c gate 555 -115 554 0
-115 -555 0
554 -555 0
115 -554 555 0
c gate 556 118 -555 0
118 -556 0
-555 -556 0
-118 555 556 0
c gate 557 -551 556 0
-551 -557 0
556 -557 0
551 -556 557 0
c gate 558 2 -116 0
2 -558 0
-116 -558 0
-2 116 558 0
c gate 559 114 116 0
114 -559 0
116 -559 0
-114 -116 559 0
c gate 560 115 -559 0
115 -560 0
-559 -560 0
-115 559 560 0
c gate 561 -558 560 0
-558 -561 0
560 -561 0
558 -560 561 0
c gate 562 1 116 0
1 -562 0
116 -562 0
-1 -116 562 0
c gate 563 3 -116 0
3 -563 0
-116 -563 0
-3 116 563 0
c gate 564 -562 -563 0
-562 -564 0
-563 -564 0
562 563 564 0
c gate 565 -115 564 0
-115 -565 0
564 -565 0
115 -564 565 0
c gate 566 -118 -565 0
-118 -566 0
-565 -566 0
118 565 566 0
c gate 567 -561 566 0
-561 -567 0
566 -567 0
561 -566 567 0
c gate 568 -117 -567 0
-117 -568 0
-567 -568 0
117 567 568 0
c gate 569 -557 568 0
-557 -569 0
568 -569 0
557 -568 569 0
c gate 570 -120 -569 0
-120 -570 0
-569 -570 0
120 569 570 0
c gate 571 -547 570 0
-547 -571 0
570 -571 0
547 -570 571 0
c gate 572 119 -571 0
119 -572 0
-571 -572 0
-119 571 572 0
c gate 573 -525 572 0
-525 -573 0
572 -573 0
525 -572 573 0
c gate 574 121 573 0
121 -574 0
573 -574 0
-121 -573 574 0
c gate 575 115 554 0
115 -575 0
554 -575 0
-115 -554 575 0
c gate 576 108 116 0
108 -576 0
116 -576 0
-108 -116 576 0
c gate 577 110 -116 0
110 -577 0
-116 -577 0
-110 116 577 0
c gate 578 -115 -577 0
-115 -578 0
-577 -578 0
115 577 578 0
c gate 579 -576 578 0
-576 -579 0
578 -579 0
576 -578 579 0
c gate 580 118 -579 0
118 -580 0
-579 -580 0
-118 579 580 0
c gate 581 -575 580 0
-575 -581 0
580 -581 0
575 -580 581 0
c gate 582 115 564 0
115 -582 0
564 -582 0
-115 -564 582 0
c gate 583 2 116 0
2 -583 0
116 -583 0
-2 -116 583 0
c gate 584 4 -116 0
4 -584 0
-116 -584 0
-4 116 584 0
c gate 585 -115 -584 0
-115 -585 0
-584 -585 0
115 584 585 0
c gate 586 -583 585 0
-583 -586 0
585 -586 0
583 -585 586 0
c gate 587 -118 -586 0
-118 -587 0
-586 -587 0
118 586 587 0
c gate 588 -582 587 0
-582 -588 0
587 -588 0
582 -587 588 0
c gate 589 117 -588 0
117 -589 0
-588 -589 0
-117 588 589 0
c gate 590 -581 589 0
-581 -590 0
589 -590 0
581 -589 590 0
c gate 591 115 532 0
115 -591 0
532 -591 0
-115 -532 591 0
c gate 592 112 116 0
112 -592 0
116 -592 0
-112 -116 592 0
c gate 593 114 -116 0
114 -593 0
-116 -593 0
-114 116 593 0
c gate 594 -115 -593 0
-115 -594 0
-593 -594 0
115 593 594 0
c gate 595 -592 594 0
-592 -595 0
594 -595 0
592 -594 595 0
c gate 596 118 -595 0
118 -596 0
-595 -596 0
-118 595 596 0
c gate 597 -591 596 0
-591 -597 0
596 -597 0
591 -596 597 0
c gate 598 6 116 0
6 -598 0
116 -598 0
-6 -116 598 0
c gate 599 8 -116 0
8 -599 0
-116 -599 0
-8 116 599 0
c gate 600 -115 -599 0
-115 -600 0
-599 -600 0
115 599 600 0
c gate 601 -598 600 0
-598 -601 0
600 -601 0
598 -600 601 0
c gate 602 5 116 0
5 -602 0
116 -602 0
-5 -116 602 0
c gate 603 7 -116 0
7 -603 0
-116 -603 0
-7 116 603 0
c gate 604 115 -603 0
115 -604 0
-603 -604 0
-115 603 604 0
c gate 605 -602 604 0
-602 -605 0
604 -605 0
602 -604 605 0
c gate 606 -118 -605 0
-118 -606 0
-605 -606 0
118 605 606 0
c gate 607 -601 606 0
-601 -607 0
606 -607 0
601 -606 607 0
c gate 608 -117 -607 0
-117 -608 0
-607 -608 0
117 607 608 0
c gate 609 -597 608 0
-597 -609 0
608 -609 0
597 -608 609 0
c gate 610 -590 -609 0
-590 -610 0
-609 -610 0
590 609 610 0
c gate 611 -120 -610 0
-120 -611 0
-610 -611 0
120 610 611 0
c gate 612 115 518 0
115 -612 0
518 -612 0
-115 -518 612 0
c gate 613 -115 410 0
-115 -613 0
410 -613 0
115 -410 613 0
c gate 614 -118 -613 0
-118 -614 0
-613 -614 0
118 613 614 0
c gate 615 -612 614 0
-612 -615 0
614 -615 0
612 -614 615 0
c gate 616 115 508 0
115 -616 0
508 -616 0
-115 -508 616 0
c gate 617 78 116 0
78 -617 0
116 -617 0
-78 -116 617 0
c gate 618 80 -116 0
80 -618 0
-116 -618 0
-80 116 618 0
c gate 619 -115 -618 0
-115 -619 0
-618 -619 0
115 618 619 0
c gate 620 -617 619 0
-617 -620 0
619 -620 0
617 -619 620 0
c gate 621 118 -620 0
118 -621 0
-620 -621 0
-118 620 621 0
c gate 622 -616 621 0
-616 -622 0
621 -622 0
616 -621 622 0
c gate 623 -615 -622 0
-615 -623 0
-622 -623 0
615 622 623 0
c gate 624 117 -623 0
117 -624 0
-623 -624 0
-117 623 624 0
c gate 625 115 486 0
115 -625 0
486 -625 0
-115 -486 625 0
c gate 626 82 116 0
82 -626 0
116 -626 0
-82 -116 626 0
c gate 627 84 -116 0
84 -627 0
-116 -627 0
-84 116 627 0
c gate 628 -115 -627 0
-115 -628 0
-627 -628 0
115 627 628 0
c gate 629 -626 628 0
-626 -629 0
628 -629 0
626 -628 629 0
c gate 630 118 -629 0
118 -630 0
-629 -630 0
-118 629 630 0
c gate 631 -625 630 0
-625 -631 0
630 -631 0
625 -630 631 0
c gate 632 89 116 0
89 -632 0
116 -632 0
-89 -116 632 0
c gate 633 91 -116 0
91 -633 0
-116 -633 0
-91 116 633 0
c gate 634 115 -633 0
115 -634 0
-633 -634 0
-115 633 634 0
c gate 635 -632 634 0
-632 -635 0
634 -635 0
632 -634 635 0
c gate 636 -115 432 0
-115 -636 0
432 -636 0
115 -432 636 0
c gate 637 -118 -636 0
-118 -637 0
-636 -637 0
118 636 637 0
c gate 638 -635 637 0
-635 -638 0
637 -638 0
635 -637 638 0
c gate 639 -631 -638 0
-631 -639 0
-638 -639 0
631 638 639 0
c gate 640 -117 -639 0
-117 -640 0
-639 -640 0
117 639 640 0
c gate 641 120 -640 0
120 -641 0
-640 -641 0
-120 640 641 0
c gate 642 -624 641 0
-624 -642 0
641 -642 0
624 -641 642 0
c gate 643 -611 -642 0
-611 -643 0
-642 -643 0
611 642 643 0
c gate 644 119 -643 0
119 -644 0
-643 -644 0
-119 643 644 0
c gate 645 121 644 0
121 -645 0
644 -645 0
-121 -644 645 0
c gate 646 -574 -645 0
-574 -646 0
-645 -646 0
574 645 646 0
c gate 647 479 646 0
479 -647 0
646 -647 0
-479 -646 647 0
c gate 648 -121 405 0
-121 -648 0
405 -648 0
121 -405 648 0
c gate 649 -216 310 0
-216 -649 0
310 -649 0
216 -310 649 0
c gate 650 -648 -649 0
-648 -650 0
-649 -650 0
648 649 650 0
c gate 651 -647 650 0
-647 -651 0
650 -651 0
647 -650 651 0
c gate 652 -311 651 0
-311 -652 0
651 -652 0
311 -651 652 0
c gate 653 -121 477 0
-121 -653 0
477 -653 0
121 -477 653 0
c gate 654 -651 653 0
-651 -654 0
653 -654 0
651 -653 654 0
c gate 655 -121 573 0
-121 -655 0
573 -655 0
121 -573 655 0
c gate 656 -654 -655 0
-654 -656 0
-655 -656 0
654 655 656 0
c gate 657 -651 656 0
-651 -657 0
656 -657 0
651 -656 657 0
c gate 658 -652 -657 0
-652 -658 0
-657 -658 0
652 657 658 0
c gate 659 -311 -658 0
-311 -659 0
-658 -659 0
311 658 659 0
c PO
-659 0
